65 71 97 96 91 
52 98 87 94 1 
45 83 73 3 68 24 
95 62 19 49 60 89 
47 7 90 50 25 
27 29 9 81 54 70 
5 23 41 48 
69 31 88 53 26 17 
39 38 37 74 
2 67 22 43 93 58 
28 76 51 79 13 77 
92 14 44 16 99 55 
59 21 12 78 34 35 80 
72 15 40 56 100 
63 30 18 10 32 
42 82 8 6 4 
33 75 20 
36 61 84 46 
64 11 66 
85 57 
86 

